17 -1 2 0 -8 -4 4 10 -3 3 9 -6 -5 -2 2 12 -1 1 11 -7 0
18 -2 3 0 -2 6 2 -4 -10 -12 17 16 -9 -11 17 15 -17 17 15 16 -1 1 5 -3 0
19 -1 0 17 18 14 13 0
19 d 17 0
20 -2 0 19 18 7 8 0
21 3 0 19 20 1 2 0
22 0 19 20 21 3 4 0
